c2_10_1

VEHICLE
NUMBER   CAPACITY
250     700

CUSTOMER
CUST NO. XCOORD.  YCOORD.  DEMAND  READY TIME DUE DATE  SERVICE TIME

0   250    250     0     0    3914     0
356 314 279 10 270 430 90
686 293 245 10 3430 3590 90
602 281 279 20 714 874 90
690 289 240 20 939 1099 90
967 313 263 20 466 626 90
560 296 232 10 1268 1428 90
976 297 250 30 3333 3493 90
271 296 253 10 834 994 90
942 293 249 10 53 213 90
445 283 248 30 33 193 90
798 312 252 20 845 1005 90
733 298 255 10 151 311 90
823 313 266 20 373 533 90
486 301 247 10 3238 3398 90
